107
141
90
65
44
99
306
85
81
0
95
156
92
34
27
97
159
79
75
40
151
110
64
26
93
94
70
32
40
438
34
50
39
63
68
47
39
81
171
42
244
51
155
121
64
60
144
26
182
44
58
319
52
189
38
0
44
111
132
248
75
82
60
305
231
97
303
77
179
0
0
102
45
40
105
98
113
0
155
31
72
38
92
88
0
175
57
105
52
156
38
97
147
181
0
79
127
27
212
401
